8226
15, 4, 6, 25, 28, 26, 47, 27, 13, 14, 52, 11, 12, 51, 33, 43, 10, 9, 41, 8, 19, 45, 32, 49, 22, 1, 18, 31, 3, 17, 21, 42, 7, 2, 30, 23, 20, 50, 29, 16, 44, 35, 34, 36, 39, 40, 38, 37, 46, 48, 24, 5
